32      4       
17      14      17      14      
0       0       0       0       0       1       2       
10      3       5       2       1       1       3       
2       12      1       3       1       1       4       
8       9       4       1       1       2       8       5       
1       1       5       3       4       1       6       
10      1       2       10      4       1       7       
5       1       1       7       5       1       9       
1       1       1       1       1       1       9       
9       1       1       2       2       2       15      10      
8       1       5       6       5       1       11      
4       1       5       8       1       2       25      12      
3       5       1       2       1       1       13      
3       6       3       3       1       1       14      
5       6       1       4       1       1       16      
1       1       1       1       1       1       16      
9       1       3       2       1       1       17      
3       7       6       1       2       2       23      18      
1       6       1       3       1       2       20      19      
9       1       1       2       4       1       21      
6       1       5       5       1       1       21      
9       1       1       1       3       1       22      
7       1       6       10      1       1       24      
5       6       5       1       4       1       24      
5       1       5       5       1       2       27      26      
8       9       2       1       9       2       27      26      
9       1       2       1       9       1       28      
3       1       2       1       6       1       28      
6       1       1       7       5       1       29      
4       1       1       3       1       1       30      
7       1       3       2       1       1       31      
5       14      4       4       6       1       32      
0       0       0       0       0       0       
